;; Original file: j_157.smt2
(set-logic HORN)
(declare-fun star_exec_inv_2 (Int Int Int Int Int) Bool)
(declare-fun star_exec_inv_1 (Int Int Int Int Int Int Int Int Int Int Int Int Int Int Int) Bool)
(declare-fun star_exec_inv_3 (Int Int Int Int Int Int Int Int Int Int Int Int Int Int Int) Bool)
(declare-fun star_exec_inv_4 (Int Int Int Int Int Int Int Int Int Int Int Int Int Int) Bool)
(declare-fun star_exec_inv_5 (Int Int Int Int Int Int Int Int Int Int Int) Bool)
(declare-fun star_exec_inv_6 (Int Int Int Int Int Int) Bool)
(declare-fun star_exec_inv_7 (Int) Bool)
(declare-fun star_exec_inv_9 (Int Int Int Int Int) Bool)
(declare-fun star_exec_inv_8 (Int Int Int Int Int Int) Bool)
(declare-fun star_exec_inv_10 (Int) Bool)
(declare-fun star_exec_inv_12 (Int Int Int Int Int) Bool)
(declare-fun star_exec_inv_11 (Int Int Int Int Int Int Int Int Int) Bool)
(declare-fun star_exec_inv_13 (Int Int Int Int Int Int Int Int Int) Bool)
(declare-fun star_exec_inv_14 (Int Int Int Int Int Int Int Int Int) Bool)
(declare-fun star_exec_inv_15 (Int Int Int Int Int Int Int Int Int) Bool)
(declare-fun star_exec_inv_16 (Int Int Int Int Int) Bool)
(declare-fun star_exec_inv_17 (Int Int Int Int Int) Bool)
(declare-fun star_exec_inv_18 (Int Int Int Int Int Int Int Int) Bool)
(declare-fun star_exec_inv_19 (Int Int Int Int Int) Bool)
(declare-fun star_exec_inv_20 (Int Int Int Int Int) Bool)
(declare-fun star_exec_inv_21 (Int Int Int Int Int) Bool)
(declare-fun star_exec_inv_22 (Int Int) Bool)
(declare-fun star_exec_inv_23 (Int Int) Bool)
(declare-fun star_exec_inv_24 (Int Int Int Int Int) Bool)
(declare-fun star_exec_inv_25 (Int Int Int Int Int) Bool)

(assert (forall ((A Int) (B Int) (C Int) (D Int) (E Int) (F Int) (G Int) (H Int) (I Int) (J Int) (K Int)) (=> (star_exec_inv_2 A B C D E) (star_exec_inv_1 A B C D E A B C D F G H I J K))))
(assert (forall ((A Int) (B Int) (C Int) (D Int) (E Int) (F Int) (L Int) (H Int) (I Int) (J Int) (K Int) (G Int)) (=> (and (star_exec_inv_1 A B C D E A B C D F L H I J K) (= G 1)) (star_exec_inv_3 A B C D E A B C D F G H I J K))))
(assert (forall ((A Int) (B Int) (C Int) (D Int) (E Int) (K Int) (F Int) (G Int) (H Int) (I Int) (J Int)) (=> (and (star_exec_inv_3 A B C D E A B C D K F G H I J) (= B 109) (>= D 0)) (star_exec_inv_4 A B C D E A B C D F G H I J))))
(assert (forall ((A Int) (B Int) (C Int) (D Int) (K Int) (L Int) (G Int) (H Int) (I Int) (J Int) (E Int) (F Int)) (=> (star_exec_inv_4 A B C D K A B C D L G H I J) (star_exec_inv_5 A B C D E F D G H I J))))
(assert (forall ((A Int) (B Int) (C Int) (D Int) (E Int) (F Int) (G Int) (H Int) (I Int) (J Int)) (=> (star_exec_inv_4 A B C D E A B C D F G H I J) (star_exec_inv_6 A B C D E F))))
(assert (forall ((B Int) (C Int) (D Int) (E Int) (F Int) (A Int)) (=> (star_exec_inv_6 B C D E F A) (star_exec_inv_7 A))))
(assert (forall ((G Int) (H Int) (I Int) (J Int) (F Int) (A Int) (B Int) (C Int) (D Int) (E Int)) (=> (and (star_exec_inv_9 G H I J F) (star_exec_inv_6 A B C D E G)) (star_exec_inv_8 A B C D E F))))
(assert (forall ((B Int) (C Int) (D Int) (E Int) (F Int) (A Int)) (=> (star_exec_inv_8 B C D E F A) (star_exec_inv_10 A))))
(assert (forall ((J Int) (F Int) (G Int) (H Int) (I Int) (A Int) (B Int) (C Int) (D Int) (E Int)) (=> (and (star_exec_inv_12 J F G H I) (star_exec_inv_8 A B C D E J)) (star_exec_inv_11 A B C D E F G H I))))
(assert (forall ((A Int) (B Int) (C Int) (D Int) (E Int) (F Int) (G Int) (H Int) (I Int)) (=> (star_exec_inv_11 A B C D E F G H I) (star_exec_inv_13 A B C D E F G H I))))
(assert (forall ((A Int) (B Int) (C Int) (D Int) (E Int) (F Int) (G Int) (H Int) (I Int)) (=> (star_exec_inv_13 A B C D E F G H I) (star_exec_inv_14 A B C D E F G H I))))
(assert (forall ((A Int) (B Int) (C Int) (D Int) (E Int) (F Int) (G Int) (H Int) (I Int)) (=> (star_exec_inv_14 A B C D E F G H I) (star_exec_inv_15 A B C D E F G H I))))
(assert (forall ((A Int) (B Int) (C Int) (D Int)) (=> (star_exec_inv_7 A) (star_exec_inv_16 A B C D A))))
(assert (forall ((A Int) (B Int) (C Int) (D Int)) (=> (star_exec_inv_16 A B C D A) (star_exec_inv_17 A B C D A))))
(assert (forall ((A Int) (B Int) (C Int) (D Int) (H Int) (E Int) (F Int) (G Int)) (=> (and (star_exec_inv_17 A B C D H) (= E 0) (= F 0) (= G 0)) (star_exec_inv_18 A B C D E F G H))))
(assert (forall ((F Int) (G Int) (H Int) (C Int) (I Int) (J Int) (K Int) (L Int) (A Int) (B Int) (E Int) (D Int)) (=> (and (star_exec_inv_18 F G H C I J K L) (= A (- 1)) (= B 293) (= E 1)) (star_exec_inv_19 A B C D E))))
(assert (forall ((A Int) (F Int) (G Int) (H Int) (B Int) (C Int) (D Int) (E Int)) (=> (star_exec_inv_18 A F G H B C D E) (star_exec_inv_20 A B C D E))))
(assert (forall ((A Int) (B Int) (C Int) (D Int) (E Int)) (=> (star_exec_inv_20 A B C D E) (star_exec_inv_21 A B C D E))))
(assert (forall ((A Int) (B Int) (C Int) (D Int) (E Int)) (=> (star_exec_inv_21 A B C D E) (star_exec_inv_9 A B C D E))))
(assert (forall ((A Int)) (=> (star_exec_inv_10 A) (star_exec_inv_22 A A))))
(assert (forall ((A Int)) (=> (star_exec_inv_22 A A) (star_exec_inv_23 A A))))
(assert (forall ((A Int) (E Int) (B Int) (C Int) (D Int)) (=> (and (star_exec_inv_23 A E) (= B 0) (= C 0) (= D 0)) (star_exec_inv_24 A B C D E))))
(assert (forall ((A Int) (B Int) (C Int) (D Int) (E Int)) (=> (star_exec_inv_24 A B C D E) (star_exec_inv_25 A B C D E))))
(assert (forall ((A Int) (B Int) (C Int) (D Int) (E Int)) (=> (star_exec_inv_25 A B C D E) (star_exec_inv_12 A B C D E))))
(assert (forall ((A Int) (B Int) (C Int) (D Int) (E Int)) (=> true (star_exec_inv_2 A B C D E))))
(check-sat)
